input4.lp
min
    -3x1 + -2x2
subject to
    0.5x1 + 0.3x2 <= 3
    0.1x1 + 0.2x2 <= 1
    0.4x1 + 0.5x2 <= 3
bounds
    x1 >= 0
    x2 >= 0
end