input4.mps
*SENSE:Minimize
NAME          input8
ROWS
 N  obj
 L  c1
 L  c2
 L  c3
COLUMNS
    x_1       c1         5.000000000000e-01
    x_1       c2         1.000000000000e-01
    x_1       c3         4.000000000000e-01
    x_1       obj       -3.000000000000e+00
    x_2       c1         3.000000000000e-01
    x_2       c2         2.000000000000e-01
    x_2       c3         5.000000000000e-01
    x_2       obj       -2.000000000000e+00
RHS
    RHS       c1         3.000000000000e+00
    RHS       c2         1.000000000000e+00
    RHS       c3         3.000000000000e+00
BOUNDS
 UP BND       x_1        inf
 UP BND       x_2        inf
ENDATA
